Solver command line: []

Read LP format model from file C:\Users\wlhlm\AppData\Local\Temp\tmplu36c8a1.pyomo.lp
Reading time = 44.63 seconds
objective: 1002984 rows, 875999 columns, 78984486 nonzeros
Set parameter MIPGap to value 0.03
Gurobi Optimizer version 12.0.1 build v12.0.1rc0 (win64 - Windows 11.0 (26100.2))

CPU model: Intel(R) Core(TM) Ultra 7 258V, instruction set [SSE2|AVX|AVX2]
Thread count: 8 physical cores, 8 logical processors, using up to 8 threads

Non-default parameters:
MIPGap  0.03

Optimize a model with 1002984 rows, 875999 columns and 78984486 nonzeros
Model fingerprint: 0x398a8844
Model has 8759 quadratic constraints
Variable types: 753360 continuous, 122639 integer (105120 binary)
Coefficient statistics:
  Matrix range     [8e-03, 2e+02]
  QMatrix range    [1e+00, 1e+00]
  Objective range  [1e-02, 5e+02]
  Bounds range     [1e+00, 3e+00]
  RHS range        [8e-05, 1e+04]
Presolve removed 157680 rows and 122640 columns (presolve time = 12s)...
Presolve removed 617548 rows and 494907 columns (presolve time = 16s)...
Presolve removed 656935 rows and 529949 columns (presolve time = 20s)...
Presolve removed 697010 rows and 554603 columns (presolve time = 25s)...
Presolve removed 697019 rows and 557388 columns (presolve time = 30s)...
Presolve removed 702923 rows and 560516 columns (presolve time = 35s)...
Presolve removed 702923 rows and 560516 columns (presolve time = 44s)...
Presolve removed 702923 rows and 560516 columns (presolve time = 46s)...
Presolve removed 711682 rows and 560516 columns (presolve time = 56s)...
Presolve removed 711682 rows and 560517 columns (presolve time = 60s)...
Presolve removed 711682 rows and 560517 columns (presolve time = 67s)...
Presolve removed 798456 rows and 655935 columns
Presolve time: 68.22s
Presolved: 204528 rows, 220064 columns, 635081 nonzeros
Variable types: 148351 continuous, 71713 integer (62954 binary)
Performing another presolve...
Presolve removed 61319 rows and 61320 columns (presolve time = 7s)...
Presolve removed 61319 rows and 61320 columns
Presolve time: 6.88s
Deterministic concurrent LP optimizer: primal and dual simplex
Showing primal log only...


Root simplex log...

Iteration    Objective       Primal Inf.    Dual Inf.      Time
       0    7.2987867e+07   7.766731e+06   4.055253e+13     77s
   58724    6.9223755e+07   2.893585e+03   3.458044e+09     80s
Concurrent spin time: 0.01s

Solved with dual simplex

Root simplex log...

Iteration    Objective       Primal Inf.    Dual Inf.      Time
   62687    6.4438828e+07   0.000000e+00   0.000000e+00     80s

Root relaxation: objective 6.443883e+07, 62687 iterations, 3.54 seconds (4.34 work units)
Total elapsed time = 80.32s (DegenMoves)

    Nodes    |    Current Node    |     Objective Bounds      |     Work
 Expl Unexpl |  Obj  Depth IntInf | Incumbent    BestBd   Gap | It/Node Time

     0     0 6.4439e+07    0  387          - 6.4439e+07      -     -   83s
H    0     0                    6.453356e+07 6.4439e+07  0.15%     -   84s

Explored 1 nodes (70832 simplex iterations) in 85.01 seconds (65.54 work units)
Thread count was 8 (of 8 available processors)

Solution count 1: 6.45336e+07 

Optimal solution found (tolerance 3.00e-02)
Best objective 6.453356353299e+07, best bound 6.443882828169e+07, gap 0.1468%

